n_res = 4;
rc = [ 15, 14, 15, 16 ];
n_tasks = 30;
d = [ 7, 1, 4, 6, 2, 10, 7, 1, 10, 6, 9, 7, 6, 9, 9, 10, 10, 10, 10, 8, 1, 10, 10, 6, 8, 8, 5, 5, 1, 9 ];
rr = [| 0, 0, 0, 7, 0, 0, 0, 0, 0, 0, 8, 0, 0, 0, 9, 0, 0, 0, 6, 0, 0, 0, 0, 0, 0, 0, 0, 0, 0, 0
      | 0, 8, 0, 0, 0, 0, 0, 0, 0, 10, 0, 0, 0, 0, 0, 0, 0, 5, 0, 0, 0, 1, 0, 5, 3, 8, 0, 0, 0, 0
      | 0, 0, 10, 0, 7, 5, 0, 0, 1, 0, 0, 0, 1, 0, 0, 7, 0, 0, 0, 9, 5, 0, 3, 0, 0, 0, 5, 0, 3, 2
      | 2, 0, 0, 0, 0, 0, 2, 7, 0, 0, 0, 4, 0, 10, 0, 0, 9, 0, 0, 0, 0, 0, 0, 0, 0, 0, 0, 7, 0, 0 |];
suc = [ { 2 }, 
        { 3 }, 
        { 4 }, 
        { 5 }, 
        { 6 }, 
        { 7 }, 
        { 8 }, 
        { 9 }, 
        { 10 }, 
        { 11 }, 
        { 12 }, 
        { 13 }, 
        { 14 }, 
        { 15 }, 
        { 16 }, 
        { 17 }, 
        { 18 }, 
        { 19 }, 
        { 20 }, 
        { 21 }, 
        { 22 }, 
        { 23 }, 
        { 24 }, 
        { 25 }, 
        { 26 }, 
        { 27 }, 
        { 28 }, 
        { 29 }, 
        { 30 }, 
        {  }]; 
